words_hard_train/2559.qaiger
aag 116 24 0 1 92
2
4
12
14
28
30
38
42
44
52
64
66
84
102
104
132
144
152
170
174
182
192
194
218
233
6 3 5
8 2 4
10 7 9
16 13 14
18 12 15
20 17 19
22 11 20
24 10 21
26 23 25
32 28 31
34 29 30
36 33 35
40 37 38
46 42 45
48 43 44
50 47 49
54 50 53
56 51 52
58 55 57
60 40 58
62 61 57
68 64 67
70 65 66
72 69 71
74 72 31
76 73 30
78 75 77
80 63 78
82 81 77
86 84 5
88 85 4
90 87 89
92 90 45
94 91 44
96 93 95
98 83 96
100 99 95
106 102 105
108 103 104
110 107 109
112 110 67
114 111 66
116 113 115
118 101 116
120 119 115
122 27 120
124 26 121
126 123 125
128 100 117
130 129 119
134 131 133
136 130 132
138 135 137
140 82 97
142 141 99
146 143 144
148 41 59
150 149 61
154 150 153
156 151 152
158 155 157
160 142 145
162 158 161
164 147 162
166 36 39
168 167 41
172 169 170
176 174 38
178 175 39
180 177 179
184 180 183
186 173 185
188 181 182
190 186 189
196 192 194
198 193 195
200 197 199
202 200 53
204 168 171
206 203 205
208 190 206
210 201 52
212 208 211
214 62 79
216 215 81
220 216 219
222 217 218
224 221 223
226 212 224
228 164 226
230 139 228
232 127 230
i0 2 y1[7]
i1 2 y1[5]
i2 1 x1[7]
i3 1 x2[7]
i4 1 x2[2]
i5 2 y1[2]
i6 2 y1[0]
i7 1 x2[3]
i8 2 y1[3]
i9 2 y1[1]
i10 1 x2[4]
i11 2 y1[4]
i12 1 x2[5]
i13 1 x2[6]
i14 2 y1[6]
i15 1 x1[6]
i16 1 x1[5]
i17 1 x1[3]
i18 1 x1[2]
i19 1 x2[0]
i20 1 x1[0]
i21 1 x1[1]
i22 1 x2[1]
i23 1 x1[4]
o0 bool[0]
c
simplified
  !=
    add
      << 2
        2 y1
      xor
        2 y1
        1 x2
    1 x1
