words_hard_train/2559.qaiger.qdimacs
p cnf 116 277
a 32 96 66 97 6 7 72 42 76 109 14 51 21 85 87 91 0
e 1 2 3 4 5 8 9 10 11 12 13 15 16 17 18 19 20 22 23 24 25 26 27 28 29 30 31 33 34 35 36 37 38 39 40 41 43 44 45 46 47 48 49 50 52 53 54 55 56 57 58 59 60 61 62 63 64 65 67 68 69 70 71 73 74 75 77 78 79 80 81 82 83 84 86 88 89 90 92 93 94 95 98 99 100 101 102 103 104 105 106 107 108 110 111 112 113 114 115 116 0
1 2 3 0
-1 -3 0
-2 -3 0
-1 -2 4 0
1 -4 0
2 -4 0
3 4 5 0
-3 -5 0
-4 -5 0
6 -7 8 0
-6 -8 0
7 -8 0
-6 7 9 0
6 -9 0
-7 -9 0
8 9 10 0
-8 -10 0
-9 -10 0
5 -10 11 0
-5 -11 0
10 -11 0
-5 10 12 0
5 -12 0
-10 -12 0
11 12 13 0
-11 -13 0
-12 -13 0
-14 15 16 0
14 -16 0
-15 -16 0
14 -15 17 0
-14 -17 0
15 -17 0
16 17 18 0
-16 -18 0
-17 -18 0
18 -19 20 0
-18 -20 0
19 -20 0
-21 22 23 0
21 -23 0
-22 -23 0
21 -22 24 0
-21 -24 0
22 -24 0
23 24 25 0
-23 -25 0
-24 -25 0
-25 26 27 0
25 -27 0
-26 -27 0
25 -26 28 0
-25 -28 0
26 -28 0
27 28 29 0
-27 -29 0
-28 -29 0
-20 -29 30 0
20 -30 0
29 -30 0
30 28 31 0
-30 -31 0
-28 -31 0
-32 33 34 0
32 -34 0
-33 -34 0
32 -33 35 0
-32 -35 0
33 -35 0
34 35 36 0
-34 -36 0
-35 -36 0
-36 15 37 0
36 -37 0
-15 -37 0
36 -15 38 0
-36 -38 0
15 -38 0
37 38 39 0
-37 -39 0
-38 -39 0
31 -39 40 0
-31 -40 0
39 -40 0
40 38 41 0
-40 -41 0
-38 -41 0
-42 2 43 0
42 -43 0
-2 -43 0
42 -2 44 0
-42 -44 0
2 -44 0
43 44 45 0
-43 -45 0
-44 -45 0
-45 22 46 0
45 -46 0
-22 -46 0
45 -22 47 0
-45 -47 0
22 -47 0
46 47 48 0
-46 -48 0
-47 -48 0
41 -48 49 0
-41 -49 0
48 -49 0
49 47 50 0
-49 -50 0
-47 -50 0
-51 52 53 0
51 -53 0
-52 -53 0
51 -52 54 0
-51 -54 0
52 -54 0
53 54 55 0
-53 -55 0
-54 -55 0
-55 33 56 0
55 -56 0
-33 -56 0
55 -33 57 0
-55 -57 0
33 -57 0
56 57 58 0
-56 -58 0
-57 -58 0
50 -58 59 0
-50 -59 0
58 -59 0
59 57 60 0
-59 -60 0
-57 -60 0
13 -60 61 0
-13 -61 0
60 -61 0
-13 60 62 0
13 -62 0
-60 -62 0
61 62 63 0
-61 -63 0
-62 -63 0
-50 58 64 0
50 -64 0
-58 -64 0
64 59 65 0
-64 -65 0
-59 -65 0
65 66 67 0
-65 -67 0
-66 -67 0
-65 -66 68 0
65 -68 0
66 -68 0
67 68 69 0
-67 -69 0
-68 -69 0
-41 48 70 0
41 -70 0
-48 -70 0
70 49 71 0
-70 -71 0
-49 -71 0
71 -72 73 0
-71 -73 0
72 -73 0
20 29 74 0
-20 -74 0
-29 -74 0
74 30 75 0
-74 -75 0
-30 -75 0
-75 76 77 0
75 -77 0
-76 -77 0
75 -76 78 0
-75 -78 0
76 -78 0
77 78 79 0
-77 -79 0
-78 -79 0
-71 72 80 0
71 -80 0
-72 -80 0
-79 80 81 0
79 -81 0
-80 -81 0
73 -81 82 0
-73 -82 0
81 -82 0
-18 19 83 0
18 -83 0
-19 -83 0
83 20 84 0
-83 -84 0
-20 -84 0
84 -85 86 0
-84 -86 0
85 -86 0
-87 -19 88 0
87 -88 0
19 -88 0
87 19 89 0
-87 -89 0
-19 -89 0
88 89 90 0
-88 -90 0
-89 -90 0
-90 91 92 0
90 -92 0
-91 -92 0
86 92 93 0
-86 -93 0
-92 -93 0
90 -91 94 0
-90 -94 0
91 -94 0
-93 94 95 0
93 -95 0
-94 -95 0
-96 -97 98 0
96 -98 0
97 -98 0
96 97 99 0
-96 -99 0
-97 -99 0
98 99 100 0
-98 -100 0
-99 -100 0
-100 26 101 0
100 -101 0
-26 -101 0
-84 85 102 0
84 -102 0
-85 -102 0
101 102 103 0
-101 -103 0
-102 -103 0
-95 -103 104 0
95 -104 0
103 -104 0
100 -26 105 0
-100 -105 0
26 -105 0
-104 105 106 0
104 -106 0
-105 -106 0
-31 39 107 0
31 -107 0
-39 -107 0
107 40 108 0
-107 -108 0
-40 -108 0
-108 109 110 0
108 -110 0
-109 -110 0
108 -109 111 0
-108 -111 0
109 -111 0
110 111 112 0
-110 -112 0
-111 -112 0
-106 -112 113 0
106 -113 0
112 -113 0
-82 -113 114 0
82 -114 0
113 -114 0
69 -114 115 0
-69 -115 0
114 -115 0
63 -115 116 0
-63 -116 0
115 -116 0
-116 0
